% seed = 2610785

mint = 35;
% maxt = 113;

nActs = 22;
dur = [0,4,4,10,10,7,9,9,7,8,5,2,2,5,4,9,6,5,4,1,2,0];

nSkills = 4;
sreq = [| 0,0,0,0,
	| 2,0,0,1,
	| 0,2,0,2,
	| 3,2,0,0,
	| 0,1,0,1,
	| 0,0,1,3,
	| 3,0,2,0,
	| 1,2,0,0,
	| 0,1,3,0,
	| 0,0,2,1,
	| 0,3,0,3,
	| 1,0,0,2,
	| 0,2,0,3,
	| 2,3,0,0,
	| 0,0,3,1,
	| 2,0,1,0,
	| 3,1,0,0,
	| 0,3,3,0,
	| 1,0,2,0,
	| 0,3,0,1,
	| 0,0,1,3,
	| 0,0,0,0, |];

nResources = 10;
mastery = [| true,true,true,false,
	| false,true,true,true,
	| false,false,false,true,
	| true,true,false,false,
	| true,false,false,true,
	| false,true,false,false,
	| true,true,false,true,
	| false,false,true,false,
	| true,false,false,false,
	| true,false,true,true, |];

nPrecs = 31;
pred = [1,1,1,2,3,4,4,4,5,5,6,7,8,9,9,10,11,12,13,13,13,14,15,15,16,17,17,18,19,20,21];
succ = [2,3,4,21,5,9,6,8,18,7,10,15,13,11,14,19,12,16,17,19,16,20,19,20,21,18,21,20,22,22,22];

nUnrels = 126;
unpred = [2,2,2,2,2,2,2,2,2,2,2,2,2,2,2,2,2,2,3,3,3,3,3,3,3,3,3,3,3,3,4,4,4,5,5,5,5,5,5,5,5,5,5,5,6,6,6,6,6,6,6,6,6,6,6,6,6,7,7,7,7,7,7,7,7,7,7,7,8,8,8,8,8,8,9,9,9,9,9,9,10,10,10,10,10,10,10,10,10,10,11,11,11,11,11,11,11,12,12,12,12,12,12,12,13,13,14,14,14,14,14,14,15,15,15,15,16,16,16,16,17,18,18,19,19,20];
unsucc = [3,4,5,6,7,8,9,10,11,12,13,14,15,16,17,18,19,20,4,6,8,9,10,11,12,13,14,16,17,21,5,7,15,6,8,9,10,11,12,13,14,16,17,21,7,8,9,11,12,13,14,15,16,17,18,20,21,8,9,10,11,12,13,14,16,17,18,21,9,10,11,12,14,15,10,13,15,17,18,19,11,12,13,14,15,16,17,18,20,21,13,14,15,17,18,19,20,13,14,15,17,18,19,20,14,15,15,16,17,18,19,21,16,17,18,21,17,18,19,20,19,19,21,20,21,21];

USEFUL_RES = [{},
	{1,2,3,4,5,7,9,10},
	{1,2,3,4,5,6,7,10},
	{1,2,4,5,6,7,9,10},
	{1,2,3,4,5,6,7,10},
	{1,2,3,5,7,8,10},
	{1,2,4,5,7,8,9,10},
	{1,2,4,5,6,7,9,10},
	{1,2,4,6,7,8,10},
	{1,2,3,5,7,8,10},
	{1,2,3,4,5,6,7,10},
	{1,2,3,4,5,7,9,10},
	{1,2,3,4,5,6,7,10},
	{1,2,4,5,6,7,9,10},
	{1,2,3,5,7,8,10},
	{1,2,4,5,7,8,9,10},
	{1,2,4,5,6,7,9,10},
	{1,2,4,6,7,8,10},
	{1,2,4,5,7,8,9,10},
	{1,2,3,4,5,6,7,10},
	{1,2,3,5,7,8,10},
	{}];

POTENTIAL_ACT = [{2,3,4,5,6,7,8,9,10,11,12,13,14,15,16,17,18,19,20,21},
	{2,3,4,5,6,7,8,9,10,11,12,13,14,15,16,17,18,19,20,21},
	{2,3,5,6,10,11,12,13,15,20,21},
	{2,3,4,5,7,8,9,11,12,13,14,16,17,18,19,20},
	{2,3,4,5,6,7,8,10,11,12,13,14,15,16,17,19,20,21},
	{3,4,5,8,9,11,13,14,17,18,20},
	{2,3,4,5,6,7,8,9,10,11,12,13,14,15,16,17,18,19,20,21},
	{6,7,9,10,15,16,18,19,21},
	{2,4,7,8,12,14,16,17,19},
	{2,3,4,5,6,7,8,9,10,11,12,13,14,15,16,17,18,19,20,21}];
